50
120
98
96
95
91
91
90
88
87
83
83
77
74
73
72
72
70
70
67
66
66
63
60
59
58
58
57
56
55
54
45
45
41
31
31
29
26
24
21
18
16
16
15
14
14
9
9
8
8
6
2
